3 48 1 10
8 9 6 5 19 7 19 16 19 4 19 19 13 5 1 17 15 5 19 20 5 19 6 9 6 10 16 5 13 18 1 7 11 16 7 11 16 19 13 4 7 9 4 12 2 5 15 20 
9.99 15.33 4.73 9.28 13.72 10.62 1.35 10.87 13.77 2.7 3.05 1.15 11.15 2.85 4.42 3.28 1.89 2.96 5.01 3.38 12.13 10.38 10.94 13.78 11.66 13.5 4.55 5.45 13.07 13.84 1.26 7.36 2.94 1.88 14.88 5.01 8.65 12.14 12.04 0.77 9.68 14.49 3.83 14.27 4.79 9.15 11.37 9.88 
8 8 8 8 8 8 8 8 8 8 8 8 8 8 8 8 8 8 8 8 8 8 8 8 8 8 8 8 8 8 8 8 8 8 8 8 8 8 8 8 8 8 8 8 8 8 8 8 
7.55 8.56 11.92 4.86 13.86 15.99 7.39 13 13.27 9.07 8.9 15.06 15.69 6.66 7.89 6.95 15.82 1.11 8.95 14.9 12.41 2.78 13.31 5.25 13.98 6.05 6.13 13.52 1.94 7.58 0.29 6.53 14.78 2.55 3.09 5.87 13.53 10.71 7.64 3.66 7.07 6.56 15.18 6.19 8.48 8.92 1 7.3 
1 1 1 1 1 1 1 1 1 1 1 1 1 1 1 1 1 1 1 1 1 1 1 1 1 1 1 1 1 1 1 1 1 1 1 1 1 1 1 1 1 1 1 1 1 1 1 1 
1 1 1 1 1 1 1 1 1 1 1 1 1 1 1 1 1 1 1 1 1 1 1 1 1 1 1 1 1 1 1 1 1 1 1 1 1 1 1 1 1 1 1 1 1 1 1 1 
1 1 1 1 1 1 1 1 1 1 1 1 1 1 1 1 1 1 1 1 1 1 1 1 1 1 1 1 1 1 1 1 1 1 1 1 1 1 1 1 1 1 1 1 1 1 1 1 
0.01 0.01 0.01 0.01 0.01 0.01 0.01 0.01 0.01 0.01 0.01 0.01 0.01 0.01 0.01 0.01 0.01 0.01 0.01 0.01 0.01 0.01 0.01 0.01 0.01 0.01 0.01 0.01 0.01 0.01 0.01 0.01 0.01 0.01 0.01 0.01 0.01 0.01 0.01 0.01 0.01 0.01 0.01 0.01 0.01 0.01 0.01 0.01 
0.02 0.02 0.02 0.02 0.02 0.02 0.02 0.02 0.02 0.02 0.02 0.02 0.02 0.02 0.02 0.02 0.02 0.02 0.02 0.02 0.02 0.02 0.02 0.02 0.02 0.02 0.02 0.02 0.02 0.02 0.02 0.02 0.02 0.02 0.02 0.02 0.02 0.02 0.02 0.02 0.02 0.02 0.02 0.02 0.02 0.02 0.02 0.02 
1 1 1 1 1 1 1 1 1 1 1 1 1 1 1 1 1 1 1 1 1 1 1 1 1 1 1 1 1 1 1 1 1 1 1 1 1 1 1 1 1 1 1 1 1 1 1 1 
